certificates/rado_a11_c212_N23.cnf
c Rad2 upper bound instance: x1 + 11*x2 - x3 = 212, interval [1,23]
p cnf 23 96
1 9 20 0
-1 -9 -20 0
1 20 21 0
-1 -20 -21 0
2 10 20 0
-2 -10 -20 0
2 21 0
-2 -21 0
3 11 20 0
-3 -11 -20 0
3 21 22 0
-3 -21 -22 0
1 4 19 0
-1 -4 -19 0
4 12 20 0
-4 -12 -20 0
4 21 23 0
-4 -21 -23 0
2 5 19 0
-2 -5 -19 0
5 13 20 0
-5 -13 -20 0
3 6 19 0
-3 -6 -19 0
6 14 20 0
-6 -14 -20 0
4 7 19 0
-4 -7 -19 0
7 15 20 0
-7 -15 -20 0
5 8 19 0
-5 -8 -19 0
8 16 20 0
-8 -16 -20 0
6 9 19 0
-6 -9 -19 0
9 17 20 0
-9 -17 -20 0
7 10 19 0
-7 -10 -19 0
10 18 20 0
-10 -18 -20 0
8 11 19 0
-8 -11 -19 0
11 19 20 0
-11 -19 -20 0
9 12 19 0
-9 -12 -19 0
12 20 0
-12 -20 0
10 13 19 0
-10 -13 -19 0
13 20 21 0
-13 -20 -21 0
11 14 19 0
-11 -14 -19 0
14 20 22 0
-14 -20 -22 0
1 15 18 0
-1 -15 -18 0
12 15 19 0
-12 -15 -19 0
15 20 23 0
-15 -20 -23 0
2 16 18 0
-2 -16 -18 0
13 16 19 0
-13 -16 -19 0
3 17 18 0
-3 -17 -18 0
14 17 19 0
-14 -17 -19 0
4 18 0
-4 -18 0
15 18 19 0
-15 -18 -19 0
5 18 19 0
-5 -18 -19 0
16 19 0
-16 -19 0
6 18 20 0
-6 -18 -20 0
17 19 20 0
-17 -19 -20 0
7 18 21 0
-7 -18 -21 0
18 19 21 0
-18 -19 -21 0
8 18 22 0
-8 -18 -22 0
19 22 0
-19 -22 0
9 18 23 0
-9 -18 -23 0
19 20 23 0
-19 -20 -23 0
