certificates/rado_a11_c212_N23.drat
-21 19 -23 0
19 -23 0
d -21 19 -23 0
-23 0
21 -19 0
-19 0
16 0
22 0
20 0
-12 0
-14 0
-8 0
9 0
15 0
11 0
17 0
5 0
-1 0
0
